
Gurobi 5.6.3 (win64) logging started 10/02/15 15:17:00

Optimize a model with 26526 rows, 17766 columns and 73391 nonzeros
Presolve removed 14451 rows and 12891 columns
Presolve time: 0.81s
Presolved: 12075 rows, 4875 columns, 34391 nonzeros
Variable types: 3111 continuous, 1764 integer (1764 binary)

Root relaxation: objective 1.197622e+04, 5057 iterations, 0.18 seconds

    Nodes    |    Current Node    |     Objective Bounds      |     Work
 Expl Unexpl |  Obj  Depth IntInf | Incumbent    BestBd   Gap | It/Node Time

     0     0 11976.2244    0   52          - 11976.2244     -      -    1s
     0     0 11976.2244    0   63          - 11976.2244     -      -    1s
     0     0 11976.2245    0    5          - 11976.2245     -      -    2s
H    0     0                    11976.224394 11976.2244  0.00%     -    2s

Cutting planes:
  Gomory: 3
  MIR: 5

Explored 0 nodes (10006 simplex iterations) in 2.65 seconds
Thread count was 8 (of 8 available processors)

Optimal solution found (tolerance 1.00e-04)
Warning: max constraint violation (1.0357e-06) exceeds tolerance
Warning: max bound violation (1.0502e-06) exceeds tolerance
Best objective 1.197622439363e+04, best bound 1.197622439363e+04, gap 0.0%

Gurobi 5.6.3 (win64) logging started 10/02/15 15:17:38

Optimize a model with 26526 rows, 17766 columns and 73391 nonzeros
Presolve removed 14451 rows and 12891 columns
Presolve time: 0.42s
Presolved: 12075 rows, 4875 columns, 34391 nonzeros
Variable types: 3111 continuous, 1764 integer (1764 binary)

Root relaxation: objective 1.197622e+04, 5057 iterations, 0.14 seconds

    Nodes    |    Current Node    |     Objective Bounds      |     Work
 Expl Unexpl |  Obj  Depth IntInf | Incumbent    BestBd   Gap | It/Node Time

     0     0 11976.2244    0   52          - 11976.2244     -      -    1s
     0     0 11976.2244    0   63          - 11976.2244     -      -    1s
     0     0 11976.2245    0    5          - 11976.2245     -      -    1s
H    0     0                    11976.224394 11976.2244  0.00%     -    1s

Cutting planes:
  Gomory: 3
  MIR: 5

Explored 0 nodes (10006 simplex iterations) in 1.79 seconds
Thread count was 8 (of 8 available processors)

Optimal solution found (tolerance 1.00e-04)
Warning: max constraint violation (1.0357e-06) exceeds tolerance
Warning: max bound violation (1.0502e-06) exceeds tolerance
Best objective 1.197622439363e+04, best bound 1.197622439363e+04, gap 0.0%
